pair_coeff 26 26 lj/charmm/coul/long 0.0208 2.600176998764394
pair_coeff 25 25 lj/charmm/coul/long 0.0161 2.62547852235958
pair_coeff 27 27 lj/charmm/coul/long 0.0100 1.1064962079303013
pair_coeff 28 28 lj/charmm/coul/long 0.0047 0.5379246460131368
pair_coeff 30 30 lj/charmm/coul/long 0.0124 1.0890345930547507
pair_coeff 29 29 lj/charmm/coul/long 0.0144 1.0746020338208773
pair_coeff 71 71 lj/charmm/coul/long 0.1463 3.048120874245357
pair_coeff 73 73 lj/charmm/coul/long 0.0726 3.156097798883966
pair_coeff 74 74 lj/charmm/coul/long 0.0726 3.156097798883966
pair_coeff 75 75 lj/charmm/coul/long 0.0726 3.156097798883966
pair_coeff 72 72 lj/charmm/coul/long 0.0930 3.242871334030835
pair_coeff 5 5 lj/charmm/coul/long 0.1078 3.397709531243626
pair_coeff 4 4 lj/charmm/coul/long 0.0988 3.3152123099438304
pair_coeff 3 3 lj/charmm/coul/long 0.1596 3.478959494338025
pair_coeff 37 37 lj/charmm/coul/long 0.1636 3.1808647832482673
pair_coeff 88 88 lj/charmm/coul/long 0.2824 3.532413417426445
pair_coeff 77 77 lj/charmm/coul/long 0.2295 3.6940224448971026
pair_coeff 33 33 lj/charmm/coul/long 0.0832 3.0342228542423677
pair_coeff 34 34 lj/charmm/coul/long 0.2638 3.465952373053176
pair_coeff 35 35 lj/charmm/coul/long 0.3932 3.6125943020590756
pair_coeff 36 36 lj/charmm/coul/long 0.4955 3.841198913133887
pair_coeff 38 38 lj/charmm/coul/long 0.1098 3.2735182499348627
pair_coeff 39 39 lj/charmm/coul/long 0.0941 3.3841678707278926
pair_coeff 40 40 lj/charmm/coul/long 0.0858 3.36510263815969
pair_coeff 42 42 lj/charmm/coul/long 0.2042 3.2058099473561965
pair_coeff 48 48 lj/charmm/coul/long 0.2150 3.189951950173299
pair_coeff 55 55 lj/charmm/coul/long 0.7828 2.8558649308706716
pair_coeff 60 60 lj/charmm/coul/long 0.0095 4.04468018035714
pair_coeff 20 20 lj/charmm/coul/long 0.0208 2.4219972551363265
pair_coeff 21 21 lj/charmm/coul/long 0.0208 2.243817511508259
pair_coeff 22 22 lj/charmm/coul/long 0.0208 2.0656377678801907
pair_coeff 32 32 lj/charmm/coul/long 0.0208 1.8874580242521226
pair_coeff 23 23 lj/charmm/coul/long 0.0161 2.536388650545546
pair_coeff 24 24 lj/charmm/coul/long 0.0161 2.4472987787315117
pair_coeff 15 15 lj/charmm/coul/long 0.1078 3.397709531243626
pair_coeff 16 16 lj/charmm/coul/long 0.1078 3.397709531243626
pair_coeff 1 1 lj/charmm/coul/long 0.0988 3.3152123099438304
pair_coeff 2 2 lj/charmm/coul/long 0.0988 3.3152123099438304
pair_coeff 6 6 lj/charmm/coul/long 0.0988 3.3152123099438304
pair_coeff 9 9 lj/charmm/coul/long 0.0988 3.3152123099438304
pair_coeff 10 10 lj/charmm/coul/long 0.0988 3.3152123099438304
pair_coeff 11 11 lj/charmm/coul/long 0.0988 3.3152123099438304
pair_coeff 12 12 lj/charmm/coul/long 0.0988 3.3152123099438304
pair_coeff 7 7 lj/charmm/coul/long 0.0988 3.3152123099438304
pair_coeff 8 8 lj/charmm/coul/long 0.0988 3.3152123099438304
pair_coeff 19 19 lj/charmm/coul/long 0.0988 3.3152123099438304
pair_coeff 13 13 lj/charmm/coul/long 0.1596 3.478959494338025
pair_coeff 14 14 lj/charmm/coul/long 0.1596 3.478959494338025
pair_coeff 17 17 lj/charmm/coul/long 0.0988 3.3152123099438304
pair_coeff 18 18 lj/charmm/coul/long 0.0988 3.3152123099438304
pair_coeff 43 43 lj/charmm/coul/long 0.0941 3.3841678707278926
pair_coeff 44 44 lj/charmm/coul/long 0.0941 3.3841678707278926
pair_coeff 45 45 lj/charmm/coul/long 0.0941 3.3841678707278926
pair_coeff 46 46 lj/charmm/coul/long 0.0941 3.3841678707278926
pair_coeff 47 47 lj/charmm/coul/long 0.0941 3.3841678707278926
pair_coeff 49 49 lj/charmm/coul/long 0.0858 3.36510263815969
pair_coeff 58 58 lj/charmm/coul/long 0.0522 3.5076464330621437
pair_coeff 59 59 lj/charmm/coul/long 0.0323 3.650190227964598
pair_coeff 41 41 lj/charmm/coul/long 3.8748 2.499505443614536
pair_coeff 52 52 lj/charmm/coul/long 2.5453 2.58859531542857
pair_coeff 53 53 lj/charmm/coul/long 1.6959 2.6776851872426035
pair_coeff 54 54 lj/charmm/coul/long 1.1450 2.766775059056638
pair_coeff 50 50 lj/charmm/coul/long 0.1174 3.269954655062301
pair_coeff 51 51 lj/charmm/coul/long 0.0851 3.3590445268763354
pair_coeff 56 56 lj/charmm/coul/long 0.1545 3.2790418219873327
pair_coeff 57 57 lj/charmm/coul/long 0.1120 3.368131693801367
pair_coeff 61 61 lj/charmm/coul/long 0.1636 3.1808647832482673
pair_coeff 62 62 lj/charmm/coul/long 0.1636 3.1808647832482673
pair_coeff 63 63 lj/charmm/coul/long 2.5453 2.58859531542857
pair_coeff 64 64 lj/charmm/coul/long 2.5453 2.58859531542857
pair_coeff 65 65 lj/charmm/coul/long 0.2150 3.189951950173299
pair_coeff 66 66 lj/charmm/coul/long 0.2150 3.189951950173299
pair_coeff 67 67 lj/charmm/coul/long 0.0858 3.36510263815969
pair_coeff 68 68 lj/charmm/coul/long 0.0858 3.36510263815969
pair_coeff 69 69 lj/charmm/coul/long 0.0522 3.5076464330621437
pair_coeff 70 70 lj/charmm/coul/long 0.0522 3.5076464330621437
pair_coeff 89 89 lj/charmm/coul/long 0.2824 3.532413417426445
pair_coeff 90 90 lj/charmm/coul/long 0.2824 3.532413417426445
pair_coeff 91 91 lj/charmm/coul/long 0.2824 3.532413417426445
pair_coeff 96 96 lj/charmm/coul/long 0.2824 3.532413417426445
pair_coeff 97 97 lj/charmm/coul/long 0.2824 3.532413417426445
pair_coeff 92 92 lj/charmm/coul/long 0.2824 3.532413417426445
pair_coeff 93 93 lj/charmm/coul/long 0.2824 3.532413417426445
pair_coeff 94 94 lj/charmm/coul/long 0.2824 3.532413417426445
pair_coeff 95 95 lj/charmm/coul/long 0.2824 3.532413417426445
pair_coeff 78 78 lj/charmm/coul/long 0.2295 3.6940224448971026
pair_coeff 79 79 lj/charmm/coul/long 0.2295 3.6940224448971026
pair_coeff 80 80 lj/charmm/coul/long 0.2295 3.6940224448971026
pair_coeff 81 81 lj/charmm/coul/long 0.2295 3.6940224448971026
pair_coeff 86 86 lj/charmm/coul/long 0.2295 3.6940224448971026
pair_coeff 87 87 lj/charmm/coul/long 0.2295 3.6940224448971026
pair_coeff 82 82 lj/charmm/coul/long 0.2295 3.6940224448971026
pair_coeff 83 83 lj/charmm/coul/long 0.2295 3.6940224448971026
pair_coeff 84 84 lj/charmm/coul/long 0.2295 3.6940224448971026
pair_coeff 85 85 lj/charmm/coul/long 0.2295 3.6940224448971026
pair_coeff 98 98 lj/charmm/coul/long 0.1729 3.9377723341802997   # Esitmated by Junmei
pair_coeff 31 31 lj/charmm/coul/long 0.0 1.0 # (default parameters)
pair_coeff 76 76 lj/charmm/coul/long 0.0 1.0 # (default parameters)
bond_coeff 1 harmonic 553.0 0.9572   # TIP3P_Water 1
bond_coeff 2 harmonic 553.0 1.5136   # TIP3P_Water 1
bond_coeff 3 harmonic 81.0 2.5420   # SOURCE1 4
bond_coeff 4 harmonic 227.0 1.7870   # SOURCE2 4 0.0024
bond_coeff 5 harmonic 168.9 1.8930   # SOURCE1_SOURCE5 25 0.0078
bond_coeff 6 harmonic 146.5 1.9460   # SOURCE2 2 0.0285
bond_coeff 7 harmonic 134.7 1.9780   # SOURCE1_SOURCE5 146 0.0118
bond_coeff 8 harmonic 162.2 1.9080   # SOURCE1_SOURCE5 462 0.0052
bond_coeff 9 harmonic 172.5 1.8850   # SOURCE4_SOURCE5 128 0.0078
bond_coeff 10 harmonic 150.0 1.9370   # 5/2017 11 0.0019
bond_coeff 11 harmonic 141.5 1.8600   # SOUECE3 1
bond_coeff 12 harmonic 88.5 2.0380   # SOURCE3 5 0.1082
bond_coeff 13 harmonic 136.5 1.8730   # SOURCE3 4 0.0046
bond_coeff 14 harmonic 110.4 1.9520   # SOURCE3 2
bond_coeff 15 harmonic 118.3 1.9260   # SOURCE3 3 0.0013
bond_coeff 16 harmonic 97.0 2.0020   # SOURCE3 7 0.2156
bond_coeff 17 harmonic 112.8 1.9440   # SOURCE3 1
bond_coeff 18 harmonic 75.7 2.1010   # SOURCE3 1
bond_coeff 19 harmonic 193.6 1.8000   # SOUECE3 1
bond_coeff 20 harmonic 160.9 1.8660   # SOURCE3 1
bond_coeff 21 harmonic 151.9 1.8870   # SOURCE3 2
bond_coeff 22 harmonic 133.1 2.2100   # SOURCE3 9 0.0510
bond_coeff 23 harmonic 126.8 2.2310   # SOURCE3 3 0.0101
bond_coeff 24 harmonic 145.9 2.1710   # SOUECE3 1
bond_coeff 25 harmonic 137.5 2.1960   # SOURCE3 3 0.0099
bond_coeff 26 harmonic 169.2 2.2200   # SOUECE3 1
bond_coeff 27 harmonic 128.8 2.3410   # SOURCE3 1
bond_coeff 28 harmonic 171.6 2.2140   # SOURCE3 3 0.0443
bond_coeff 29 harmonic 173.6 2.2090   # SOURCE3 1
bond_coeff 30 harmonic 176.0 2.2030   # SOURCE3 3 0.0035
bond_coeff 31 harmonic 837.3 1.1980   # SOURCE1_SOURCE5 659 0.0039
bond_coeff 32 harmonic 535.9 1.3070   # SOURCE1 18
bond_coeff 33 harmonic 295.9 1.4670   # SOURCE1_SOURCE5 795 0.0034
bond_coeff 34 harmonic 325.6 1.4400   # SOUECE3 1
bond_coeff 35 harmonic 518.7 1.3150   # SOURCE4 6 0.0086
bond_coeff 36 harmonic 776.8 1.2160   # SOURCE3_SOURCE5 179 0.0036
bond_coeff 37 harmonic 765.4 1.2190   # SOURCE3_SOURCE5 13 0.0016
bond_coeff 38 harmonic 261.5 1.6310   # SOURCE2 6 0.0050
bond_coeff 39 harmonic 319.9 1.4450   # 5/2017 24 0.0043
bond_coeff 40 harmonic 482.2 1.2700   # SOURCE2 2 0.0085
bond_coeff 41 harmonic 433.7 1.0670   # SOURCE3_SOURCE5 343 0.0013
bond_coeff 42 harmonic 448.2 1.0600   # SOUECE3 1
bond_coeff 43 harmonic 153.5 1.9890   # SOURCE2 4 0.0032
bond_coeff 44 harmonic 891.5 1.1530   # SOURCE1_SOURCE5 481 0.0035
bond_coeff 45 harmonic 736.8 1.1970   # SOURCE3_SOURCE5 36 0.0076
bond_coeff 46 harmonic 401.0 1.3470   # SOURCE2_SOURCE5 10 0.0093
bond_coeff 47 harmonic 309.6 1.4170   # SOURCE3 3 0.0032
bond_coeff 48 harmonic 428.9 1.3300   # SOUECE3 1
bond_coeff 49 harmonic 379.5 1.3620   # SOURCE3 8 0.0034
bond_coeff 50 harmonic 720.5 1.2020   # SOURCE4_SOURCE5 31 0.0124
bond_coeff 51 harmonic 720.5 1.2020   # SOURCE4_SOURCE5 21 0.0141
bond_coeff 52 harmonic 409.0 1.3420   # SOURCE4_SOURCE5 33 0.0061
bond_coeff 53 harmonic 323.5 1.4050   # SOURCE3 3 0.0005
bond_coeff 54 harmonic 795.0 1.1720   # SOURCE2_SOURCE5 31 0.0068
bond_coeff 55 harmonic 422.2 1.3260   # SOURCE3 1
bond_coeff 56 harmonic 435.4 1.3180   # SOURCE3_SOURCE5 8 0.0079
bond_coeff 57 harmonic 216.0 1.7700   # SOUECE3 1
bond_coeff 58 harmonic 203.9 1.7900   # SOUECE3 1
bond_coeff 59 harmonic 203.9 1.7900   # SOUECE3 1
bond_coeff 60 harmonic 227.0 1.7530   # SOURCE3 2
bond_coeff 61 harmonic 380.5 1.5950   # SOURCE3 1
bond_coeff 62 harmonic 370.6 1.6030   # SOURCE1_SOURCE5 37 0.0043
bond_coeff 63 harmonic 239.0 1.7460   # SOURCE3 2
bond_coeff 64 harmonic 256.6 1.7220   # SOURCE3 2
bond_coeff 65 harmonic 291.4 1.6800   # SOUECE3 1
bond_coeff 66 harmonic 282.8 1.6900   # SOURCE1_SOURCE5 49 0.0113
bond_coeff 67 harmonic 481.8 1.3340   # SOURCE1_SOURCE5 3727 0.0053
bond_coeff 68 harmonic 255.6 1.5100   # SOURCE1_SOURCE5 10204 0.0042
bond_coeff 69 harmonic 398.4 1.3850   # SOUECE3_SOURCE5 9 0.0149
bond_coeff 70 harmonic 438.0 1.3590   # SOURCE1_SOURCE5 882 0.0181
bond_coeff 71 harmonic 438.0 1.3590   # SOURCE1_SOURCE5 882 0.0181
bond_coeff 72 harmonic 460.5 1.3460   # SOURCE3_SOURCE5 3239 0.0058
bond_coeff 73 harmonic 460.5 1.3460   # SOURCE3_SOURCE5 3177 0.0057
bond_coeff 74 harmonic 192.7 1.7310   # SOURCE1_SOURCE5 290 0.0098
bond_coeff 75 harmonic 501.4 1.3240   # 5/2017 11 0.0010
bond_coeff 76 harmonic 278.0 1.4850   # 5/2017 76 0.0060
bond_coeff 77 harmonic 254.3 1.5110   # 5/2017 21 0.0067
bond_coeff 78 harmonic 368.1 1.3390   # SOURCE1_SOURCE5 35 0.0085
bond_coeff 79 harmonic 394.2 1.0870   # SOURCE3_SOURCE5 517 0.0028
bond_coeff 80 harmonic 386.1 1.0910   # SOURCE4_SOURCE5 116 0.0021
bond_coeff 81 harmonic 392.2 1.0880   # SOURCE3_SOURCE5 5991 0.0019
bond_coeff 82 harmonic 393.9 1.0870   # SOURCE3 789 0.0046
bond_coeff 83 harmonic 401.4 1.0830   # SOURCE3 3 0.0008
bond_coeff 84 harmonic 98.1 2.1700   # SOURCE3_SOURCE5 7 0.0194
bond_coeff 85 harmonic 470.9 1.3060   # SOURCE3 4 0.0161
bond_coeff 86 harmonic 518.7 1.2820   # SOURCE1_SOURCE5 1004 0.0051
bond_coeff 87 harmonic 412.7 1.3400   # SOUECE3 1
bond_coeff 88 harmonic 330.2 1.3990   # SOURCE3_SOURCE5 174 0.0100
bond_coeff 89 harmonic 221.4 1.5120   # SOURCE3_SOURCE5 21 0.0133
bond_coeff 90 harmonic 327.7 1.4010   # SOURCE3_SOURCE5 65 0.0179
bond_coeff 91 harmonic 458.2 1.3130   # SOURCE1 99 0.0095
bond_coeff 92 harmonic 458.2 1.3130   # SOURCE1 99
bond_coeff 93 harmonic 498.8 1.2920   # SOURCE3_SOURCE5 310 0.0099
bond_coeff 94 harmonic 498.8 1.2920   # SOURCE3_SOURCE5 273 0.0098
bond_coeff 95 harmonic 345.4 1.3870   # SOURCE3_SOURCE5 1559 0.0120
bond_coeff 96 harmonic 276.9 1.4480   # SOURCE4_SOURCE5 27 0.0139
bond_coeff 97 harmonic 635.2 1.2250   # SOURCE4_SOURCE5 35 0.0033
bond_coeff 98 harmonic 402.3 1.3390   # SOURCE1_SOURCE5 85 0.0126
bond_coeff 99 harmonic 371.3 1.3600   # SOURCE1_SOURCE5 548 0.0107
bond_coeff 100 harmonic 292.5 1.6690   # SOURCE3_SOURCE5 87 0.0126
bond_coeff 101 harmonic 179.9 1.8340   # SOURCE3 5 0.0042
bond_coeff 102 harmonic 186.1 1.8220   # SOUECE3 1
bond_coeff 103 harmonic 166.2 1.8630   # SOURCE4_SOURCE5 15 0.0083
bond_coeff 104 harmonic 275.1 1.6890   # SOURCE3_SOURCE5 60 0.0472
bond_coeff 105 harmonic 275.1 1.6890   # SOURCE3_SOURCE5 8 0.0019
bond_coeff 106 harmonic 362.6 1.6100   # SOURCE2 1
bond_coeff 107 harmonic 247.7 1.7340   # SOURCE3 4 0.0034
bond_coeff 108 harmonic 229.4 1.7600   # SOUECE3 1
bond_coeff 109 harmonic 229.4 1.7600   # SOUECE3 1
bond_coeff 110 harmonic 215.2 1.7820   # SOURCE4_SOURCE5 13 0.0077
bond_coeff 111 harmonic 246.2 1.7360   # SOURCE1 209 0.0155
bond_coeff 112 harmonic 232.5 1.5380   # SOURCE1_SOURCE5 88072 0.0058
bond_coeff 113 harmonic 250.3 1.5160   # SOURCE1_SOURCE5 10699 0.0054
bond_coeff 114 harmonic 262.6 1.5020   # SOURCE3_SOURCE5 3926 0.0049
bond_coeff 115 harmonic 262.6 1.5020   # SOURCE3_SOURCE5 3926 0.0049
bond_coeff 116 harmonic 250.1 1.5160   # SOURCE3_SOURCE5 1210 0.0060
bond_coeff 117 harmonic 250.2 1.5160   # SOURCE3_SOURCE5 345 0.0071
bond_coeff 118 harmonic 155.5 1.8040   # SOURCE1_SOURCE5 1173 0.0119
bond_coeff 119 harmonic 278.9 1.4840   # 5/2017 2
bond_coeff 120 harmonic 263.1 1.5010   # 5/2017 1
bond_coeff 121 harmonic 244.9 1.5220   # 5/2017 849 0.0062
bond_coeff 122 harmonic 235.3 1.5340   # 5/2017 522 0.0055
bond_coeff 123 harmonic 352.6 1.3500   # SOURCE1_SOURCE5 2188 0.0139
bond_coeff 124 harmonic 375.9 1.0970   # SOURCE3_SOURCE5 112144 0.0055
bond_coeff 125 harmonic 377.3 1.0960   # SOURCE3_SOURCE5 2681 0.0032
bond_coeff 126 harmonic 379.5 1.0950   # SOURCE4_SOURCE5 64 0.0028
bond_coeff 127 harmonic 375.9 1.0970   # SOURCE3_SOURCE5 133628 0.0015
bond_coeff 128 harmonic 386.5 1.0910   # SOURCE3_SOURCE5 6495 0.0022
bond_coeff 129 harmonic 89.0 2.2120   # SOURCE1_SOURCE5 35 0.0128
bond_coeff 130 harmonic 292.3 1.4330   # SOURCE3_SOURCE5 7 0.0033
bond_coeff 131 harmonic 259.9 1.4660   # SOURCE1_SOURCE5 816 0.0087
bond_coeff 132 harmonic 263.8 1.4620   # SOURCE1_SOURCE5 4576 0.0061
bond_coeff 133 harmonic 261.2 1.4650   # SOURCE1_SOURCE5 15206 0.0039
bond_coeff 134 harmonic 222.6 1.5110   # SOURCE1_SOURCE5 2375 0.0125
bond_coeff 135 harmonic 262.9 1.4630   # SOURCE3_SOURCE5 1732 0.0077
bond_coeff 136 harmonic 269.3 1.4560   # SOURCE3 9 0.0109
bond_coeff 137 harmonic 269.3 1.4560   # SOURCE3 9
bond_coeff 138 harmonic 261.8 1.4640   # SOURCE3_SOURCE5 3492 0.0064
bond_coeff 139 harmonic 206.4 1.5330   # SOURCE1_SOURCE5 150 0.0187
bond_coeff 140 harmonic 438.1 1.3170   # SOURCE4 8 0.0193
bond_coeff 141 harmonic 293.4 1.4230   # SOURCE1_SOURCE5 8884 0.0067
bond_coeff 142 harmonic 284.8 1.4320   # SOURCE1_SOURCE5 17971 0.0103
bond_coeff 143 harmonic 169.7 1.8550   # SOURCE3 9 0.0125
bond_coeff 144 harmonic 168.2 1.8580   # SOURCE3_SOURCE5 221 0.0094
bond_coeff 145 harmonic 177.6 1.8390   # SOURCE3_SOURCE5 45 0.0106
bond_coeff 146 harmonic 177.2 1.8390   # SOURCE1_SOURCE5 408 0.0183
bond_coeff 147 harmonic 182.7 1.8290   # SOURCE3_SOURCE5 35 0.0083
bond_coeff 148 harmonic 177.1 1.8400   # SOURCE3_SOURCE5 39 0.0126
bond_coeff 149 harmonic 180.0 1.8450   # SOURCE3 4 0.0185
bond_coeff 150 harmonic 187.5 1.8310   # SOURCE1_SOURCE5 326 0.0096
bond_coeff 151 harmonic 200.1 1.8080   # SOURCE1_SOURCE5 644 0.0143
bond_coeff 152 harmonic 180.8 1.8430   # SOURCE3_SOURCE5 189 0.0058
bond_coeff 153 harmonic 183.0 1.8390   # SOURCE1_SOURCE5 2732 0.0105
bond_coeff 154 harmonic 181.6 1.8420   # SOURCE3_SOURCE5 99 0.0121
bond_coeff 155 harmonic 199.4 1.8090   # SOURCE3_SOURCE5 162 0.0094
bond_coeff 156 harmonic 378.6 1.3980   # SOURCE1_SOURCE5 121206 0.0061
bond_coeff 157 harmonic 308.2 1.4560   # SOURCE1_SOURCE5 2424 0.0121
bond_coeff 158 harmonic 308.2 1.4560   # SOURCE1_SOURCE5 2424 0.0121
bond_coeff 159 harmonic 286.5 1.4760   # SOURCE1_SOURCE5 1750 0.0089
bond_coeff 160 harmonic 286.5 1.4760   # SOURCE1_SOURCE5 1750 0.0089
bond_coeff 161 harmonic 334.1 1.4330   # SOURCE1_SOURCE5 318 0.0029
bond_coeff 162 harmonic 334.1 1.4330   # SOURCE1_SOURCE5 318 0.0029
bond_coeff 163 harmonic 182.0 1.7500   # SOURCE1_SOURCE5 2919 0.0059
bond_coeff 164 harmonic 368.4 1.4060   # CORR_SOURCE5 2042 0.0049
bond_coeff 165 harmonic 368.4 1.4060   # CORR_SOURCE5 2042 0.0049
bond_coeff 166 harmonic 267.6 1.4960   # 5/2017 67 0.0051
bond_coeff 167 harmonic 250.0 1.5160   # 5/2017 27 0.0058
bond_coeff 168 harmonic 353.6 1.3490   # SOURCE1_SOURCE5 1239 0.0057
bond_coeff 169 harmonic 390.1 1.0890   # SOURCE3_SOURCE5 2643 0.0010
bond_coeff 170 harmonic 392.4 1.0880   # SOURCE3_SOURCE5 299 0.0007
bond_coeff 171 harmonic 395.7 1.0860   # SOURCE3_SOURCE5 65456 0.0010
bond_coeff 172 harmonic 108.3 2.1290   # SOURCE1_SOURCE5 61 0.0076
bond_coeff 173 harmonic 420.7 1.3350   # SOURCE3_SOURCE5 6 0.0078
bond_coeff 174 harmonic 476.5 1.3030   # SOURCE4 7 0.0058
bond_coeff 175 harmonic 315.2 1.4120   # SOURCE3_SOURCE5 1254 0.0090
bond_coeff 176 harmonic 244.0 1.4840   # SOURCE1_SOURCE5 28 0.0065
bond_coeff 177 harmonic 349.5 1.3840   # SOURCE1_SOURCE5 2751 0.0095
bond_coeff 178 harmonic 414.2 1.3390   # SOURCE3_SOURCE5 6806 0.0055
bond_coeff 179 harmonic 394.6 1.3520   # SOURCE1_SOURCE5 2672 0.0030
bond_coeff 180 harmonic 394.6 1.3520   # SOURCE1_SOURCE5 2672 0.0030
bond_coeff 181 harmonic 320.1 1.4080   # SOURCE1_SOURCE5 276 0.0093
bond_coeff 182 harmonic 320.1 1.4080   # SOURCE1_SOURCE5 276 0.0093
bond_coeff 183 harmonic 347.1 1.3860   # SOURCE1_SOURCE5 2785 0.0134
bond_coeff 184 harmonic 257.4 1.4690   # SOURCE1_SOURCE5 454 0.0049
bond_coeff 185 harmonic 606.5 1.2360   # SOURCE4_SOURCE5 17 0.0088
bond_coeff 186 harmonic 365.6 1.3640   # SOURCE1_SOURCE5 3637 0.0062
bond_coeff 187 harmonic 357.5 1.3700   # SOURCE1_SOURCE5 6900 0.0064
bond_coeff 188 harmonic 176.9 1.8400   # SOUECE3 1
bond_coeff 189 harmonic 184.2 1.8260   # SOURCE1_SOURCE5 156 0.0180
bond_coeff 190 harmonic 194.7 1.8060   # SOUECE3 1
bond_coeff 191 harmonic 200.8 1.7950   # SOURCE1_SOURCE5 577 0.0028
bond_coeff 192 harmonic 182.5 1.8290   # SOURCE3 10 0.0042
bond_coeff 193 harmonic 182.5 1.8290   # SOURCE3 10 0.0042
bond_coeff 194 harmonic 184.5 1.8250   # SOURCE3 5 0.0168
bond_coeff 195 harmonic 189.2 1.8160   # SOURCE4_SOURCE5 34 0.0098
bond_coeff 196 harmonic 244.0 1.7390   # SOURCE3 2
bond_coeff 197 harmonic 211.5 1.7880   # SOURCE1 51 0.0048
bond_coeff 198 harmonic 224.8 1.7670   # SOURCE1_SOURCE5 258 0.0041
bond_coeff 199 harmonic 215.9 1.7810   # SOURCE4_SOURCE5 40 0.0053
bond_coeff 200 harmonic 216.1 1.7810   # SOURCE1_SOURCE5 1016 0.0068
bond_coeff 201 harmonic 190.3 1.8250   # SOURCE4_SOURCE5 90 0.0050
bond_coeff 202 harmonic 209.8 1.7910   # SOURCE3_SOURCE5 703 0.0076
bond_coeff 203 harmonic 303.3 1.4600   # SOUECE3 1
bond_coeff 204 harmonic 368.2 1.4060   # SOURCE3 2 0.0370
bond_coeff 205 harmonic 224.4 1.5480   # SOURCE1_SOURCE5 254 0.0090
bond_coeff 206 harmonic 243.2 1.5240   # SOURCE1_SOURCE5 12697 0.0077
bond_coeff 207 harmonic 272.7 1.4910   # SOURCE1_SOURCE5 4357 0.0085
bond_coeff 208 harmonic 295.4 1.4680   # SOURCE3_SOURCE5 1864 0.0130
bond_coeff 209 harmonic 340.2 1.4280   # SOURCE1_SOURCE5 4559 0.0096
bond_coeff 210 harmonic 416.1 1.3730   # SOURCE3_SOURCE5 8451 0.0091
bond_coeff 211 harmonic 309.8 1.4540   # CORR_SOURCE5 396 0.0089
bond_coeff 212 harmonic 427.7 1.3660   # CORR_SOURCE5 156 0.0107
bond_coeff 213 harmonic 342.8 1.4260   # SOURCE1_SOURCE5 109 0.0049
bond_coeff 214 harmonic 341.2 1.4270   # SOURCE1 560
bond_coeff 215 harmonic 190.1 1.7350   # CORR_SOURCE5 137 0.0076
bond_coeff 216 harmonic 293.9 1.4690   # 5/2017 24 0.0036
bond_coeff 217 harmonic 295.4 1.4680   # SOURCE3_SOURCE5 1864 0.0130
bond_coeff 218 harmonic 280.4 1.4820   # SOURCE1_SOURCE5 3022 0.0115
bond_coeff 219 harmonic 280.4 1.4820   # SOURCE1_SOURCE5 3022 0.0115
bond_coeff 220 harmonic 365.0 1.3410   # SOURCE4_SOURCE5 70 0.0039
bond_coeff 221 harmonic 312.9 1.4510   # SOURCE3_SOURCE5 11 0.0089
bond_coeff 222 harmonic 312.9 1.4510   # SOURCE3_SOURCE5 11 0.0089
bond_coeff 223 harmonic 403.9 1.0820   # SOURCE3_SOURCE5 4457 0.0016
bond_coeff 224 harmonic 403.5 1.0820   # SOURCE3_SOURCE5 879 0.0012
bond_coeff 225 harmonic 400.1 1.0840   # SOURCE3_SOURCE5 4706 0.0018
bond_coeff 226 harmonic 156.2 1.8030   # SOURCE3_SOURCE5 16 0.0187
bond_coeff 227 harmonic 500.7 1.2900   # CORR_SOURCE5 156 0.0074
bond_coeff 228 harmonic 353.8 1.3810   # SOURCE3_SOURCE5 1142 0.0085
bond_coeff 229 harmonic 236.7 1.4930   # SOURCE4 7 0.0148
bond_coeff 230 harmonic 354.5 1.3800   # SOURCE3_SOURCE5 6739 0.0088
bond_coeff 231 harmonic 369.1 1.3690   # SOURCE1_SOURCE5 2269 0.0086
bond_coeff 232 harmonic 450.7 1.3170   # SOURCE3_SOURCE5 4612 0.0083
bond_coeff 233 harmonic 356.6 1.3790   # SOURCE4_SOURCE5 82 0.0119
bond_coeff 234 harmonic 485.1 1.2980   # CORR_SOURCE5 41 0.0113
bond_coeff 235 harmonic 363.5 1.3730   # SOURCE3_SOURCE5 976 0.0106
bond_coeff 236 harmonic 296.6 1.4290   # SOURCE4_SOURCE5 386 0.0074
bond_coeff 237 harmonic 389.4 1.3470   # CORR_SOURCE5 248 0.0073
bond_coeff 238 harmonic 367.9 1.3620   # SOURCE3_SOURCE5 1859 0.0083
bond_coeff 239 harmonic 240.8 1.7330   # SOURCE3 84 0.0161
bond_coeff 240 harmonic 223.3 1.7690   # SOURCE4_SOURCE5 22 0.0030
bond_coeff 241 harmonic 232.0 1.7560   # SOURCE3_SOURCE5 2011 0.0134
bond_coeff 242 harmonic 198.3 1.8110   # SOURCE4_SOURCE5 44 0.0033
bond_coeff 243 harmonic 214.1 1.7840   # CORR_SOURCE5 73 0.0082
bond_coeff 244 harmonic 360.2 1.4120   # SOURCE2 1
bond_coeff 245 harmonic 261.3 1.5030   # 5/2017 246 0.0109
bond_coeff 246 harmonic 221.6 1.5520   # 5/2017 374 0.0059
bond_coeff 247 harmonic 340.2 1.4280   # SOURCE1_SOURCE5 4559 0.0096
bond_coeff 248 harmonic 427.7 1.3660   # CORR_SOURCE5 156 0.0107
bond_coeff 249 harmonic 309.8 1.4540   # CORR_SOURCE5 396 0.0089
bond_coeff 250 harmonic 341.2 1.4270   # SOURCE1 560
bond_coeff 251 harmonic 342.8 1.4260   # SOURCE1_SOURCE5 109 0.0049
bond_coeff 252 harmonic 190.1 1.7350   # CORR_SOURCE5 137 0.0076
bond_coeff 253 harmonic 282.9 1.4800   # 5/2017 13 0.0034
bond_coeff 254 harmonic 259.5 1.5050   # 5/2017 11 0.0006
bond_coeff 255 harmonic 403.9 1.0820   # SOURCE3_SOURCE5 4457 0.0016
bond_coeff 256 harmonic 403.7 1.0820   # SOURCE3_SOURCE5 578 0.0013
bond_coeff 257 harmonic 400.1 1.0840   # SOURCE3_SOURCE5 4706 0.0018
bond_coeff 258 harmonic 500.7 1.2900   # CORR_SOURCE5 156 0.0074
bond_coeff 259 harmonic 353.8 1.3810   # SOURCE3_SOURCE5 1142 0.0085
bond_coeff 260 harmonic 354.5 1.3800   # SOURCE3_SOURCE5 6739 0.0088
bond_coeff 261 harmonic 450.7 1.3170   # SOURCE3_SOURCE5 4612 0.0083
bond_coeff 262 harmonic 369.1 1.3690   # SOURCE1_SOURCE5 2269 0.0086
bond_coeff 263 harmonic 485.1 1.2980   # CORR_SOURCE5 41 0.0113
bond_coeff 264 harmonic 363.5 1.3730   # SOURCE3_SOURCE5 976 0.0106
bond_coeff 265 harmonic 389.4 1.3470   # CORR_SOURCE5 248 0.0073
bond_coeff 266 harmonic 367.9 1.3620   # SOURCE3_SOURCE5 1859 0.0083
bond_coeff 267 harmonic 240.8 1.7330   # SOURCE3 84
bond_coeff 268 harmonic 232.0 1.7560   # SOURCE3_SOURCE5 2011 0.0134
bond_coeff 269 harmonic 214.1 1.7840   # CORR_SOURCE5 73 0.0082
bond_coeff 270 harmonic 306.1 1.4570   # SOURCE1_SOURCE5 1000 0.0092
bond_coeff 271 harmonic 452.2 1.3510   # SOURCE1_SOURCE5 1908 0.0059
bond_coeff 272 harmonic 341.2 1.4270   # SOURCE1_SOURCE5 238 0.0053
bond_coeff 273 harmonic 336.3 1.4310   # SOURCE1 22
bond_coeff 274 harmonic 174.7 1.7640   # SOURCE4_SOURCE5 90 0.0111
bond_coeff 275 harmonic 261.3 1.5030   # 5/2017 26 0.0077
bond_coeff 276 harmonic 249.1 1.5170   # 5/2017 36 0.0052
bond_coeff 277 harmonic 385.4 1.0920   # CORR_SOURCE5 315 0.0033
bond_coeff 278 harmonic 391.4 1.0880   # SOURCE3_SOURCE5 2751 0.0014
bond_coeff 279 harmonic 461.6 1.3110   # CORR_SOURCE5 16 0.0049
bond_coeff 280 harmonic 507.0 1.2870   # SOURCE1_SOURCE5 896 0.0038
bond_coeff 281 harmonic 301.7 1.4240   # CORR_SOURCE5 209 0.0059
bond_coeff 282 harmonic 305.3 1.4210   # SOURCE4_SOURCE5 11 0.0050
bond_coeff 283 harmonic 336.6 1.3940   # SOURCE3_SOURCE5 69 0.0151
bond_coeff 284 harmonic 489.1 1.2960   # CORR_SOURCE5 101 0.0097
bond_coeff 285 harmonic 341.7 1.3900   # CORR_SOURCE5 300 0.0133
bond_coeff 286 harmonic 384.7 1.3500   # CORR_SOURCE5 58 0.0102
bond_coeff 287 harmonic 355.7 1.3710   # CORR_SOURCE5 96 0.0128
bond_coeff 288 harmonic 190.4 1.8140   # SOUECE3 1
bond_coeff 289 harmonic 188.2 1.8180   # SOURCE3 8 0.0108
bond_coeff 290 harmonic 186.6 1.8210   # SOURCE3 6 0.0046
bond_coeff 291 harmonic 195.0 1.8060   # SOURCE3_SOURCE5 22 0.0142
bond_coeff 292 harmonic 291.4 1.6800   # SOUECE3 1
bond_coeff 293 harmonic 215.6 1.7810   # SOURCE4_SOURCE5 56 0.0098
bond_coeff 294 harmonic 193.9 1.8190   # SOURCE3_SOURCE5 30 0.0101
bond_coeff 295 harmonic 211.5 1.7880   # SOURCE3_SOURCE5 41 0.0169
bond_coeff 296 harmonic 387.8 1.3250   # SOURCE2 6 0.0147
bond_coeff 297 harmonic 306.1 1.4570   # SOURCE1_SOURCE5 1000 0.0092
bond_coeff 298 harmonic 336.3 1.4310   # SOURCE1 22
bond_coeff 299 harmonic 341.2 1.4270   # SOURCE1_SOURCE5 238 0.0053
bond_coeff 300 harmonic 385.4 1.0920   # CORR_SOURCE5 315 0.0033
bond_coeff 301 harmonic 391.4 1.0880   # SOURCE3_SOURCE5 2751 0.0014
bond_coeff 302 harmonic 461.6 1.3110   # CORR_SOURCE5 16 0.0049
bond_coeff 303 harmonic 507.0 1.2870   # SOURCE1_SOURCE5 896 0.0038
bond_coeff 304 harmonic 301.7 1.4240   # CORR_SOURCE5 209 0.0059
bond_coeff 305 harmonic 489.1 1.2960   # CORR_SOURCE5 101 0.0097
bond_coeff 306 harmonic 336.6 1.3940   # SOURCE3_SOURCE5 62 0.0156
bond_coeff 307 harmonic 341.7 1.3900   # CORR_SOURCE5 300 0.0133
bond_coeff 308 harmonic 384.7 1.3500   # CORR_SOURCE5 58 0.0102
bond_coeff 309 harmonic 355.7 1.3710   # CORR_SOURCE5 96 0.0128
bond_coeff 310 harmonic 190.4 1.8140   # SOUECE3 1
bond_coeff 311 harmonic 188.2 1.8180   # SOURCE3 8
bond_coeff 312 harmonic 186.6 1.8210   # SOURCE3 6
bond_coeff 313 harmonic 195.0 1.8060   # SOURCE3_SOURCE5 17 0.0171
bond_coeff 314 harmonic 291.4 1.6800   # SOUECE3 1
bond_coeff 315 harmonic 193.9 1.8190   # SOURCE3_SOURCE5 25 0.0105
bond_coeff 316 harmonic 211.5 1.7880   # SOURCE3_SOURCE5 36 0.0177
bond_coeff 317 harmonic 421.8 1.3690   # SOURCE1_SOURCE5 62 0.0025
bond_coeff 318 harmonic 811.5 1.2060   # SOURCE1_SOURCE5 156 0.0023
bond_coeff 319 harmonic 879.3 1.1570   # SOURCE1_SOURCE5 879 0.0015
bond_coeff 320 harmonic 435.4 1.3260   # SOURCE4_SOURCE5 68 0.0013
bond_coeff 321 harmonic 339.4 1.6210   # SOURCE3 11 0.2008
bond_coeff 322 harmonic 350.2 1.1120   # SOURCE4_SOURCE5 506 0.0025
bond_coeff 323 harmonic 361.8 1.1050   # SOURCE4_SOURCE5 163 0.0038
bond_coeff 324 harmonic 368.8 1.1010   # SOURCE3 53 0.0102
bond_coeff 325 harmonic 421.8 1.3690   # SOURCE1_SOURCE5 62 0.0025
bond_coeff 326 harmonic 879.3 1.1570   # SOURCE1_SOURCE5 879 0.0015
bond_coeff 327 harmonic 435.4 1.3260   # SOURCE4_SOURCE5 51 0.0014
bond_coeff 328 harmonic 339.4 1.6210   # SOURCE3 11
bond_coeff 329 harmonic 89.5 2.2090   # SOURCE3 4 0.0365
bond_coeff 330 harmonic 79.3 2.2670   # SOURCE1 2 0.0395
bond_coeff 331 harmonic 163.0 1.7880   # 5/2017 42 0.0071
bond_coeff 332 harmonic 160.2 1.7940   # 5/2017 26 0.0106
bond_coeff 333 harmonic 217.6 1.6300   # SOUECE3 1
bond_coeff 334 harmonic 123.8 1.8190   # SOURCE3 6 0.1020
bond_coeff 335 harmonic 139.5 1.7770   # SOURCE4_SOURCE5 16 0.0044
bond_coeff 336 harmonic 167.0 1.7160   # SOURCE4_SOURCE5 17 0.0049
bond_coeff 337 harmonic 149.7 1.7530   # SOURCE3 4 0.0098
bond_coeff 338 harmonic 118.4 1.8350   # SOURCE3 7 0.2083
bond_coeff 339 harmonic 145.4 1.7630   # SOURCE3 1
bond_coeff 340 harmonic 116.7 1.8400   # SOURCE2 1
bond_coeff 341 harmonic 331.0 1.4830   # SOURCE3 4
bond_coeff 342 harmonic 169.1 1.6900   # SOURCE2 1
bond_coeff 343 harmonic 149.9 1.7300   # SOURCE3 4
bond_coeff 344 harmonic 143.5 2.0700   # SOURCE3 6 0.0108
bond_coeff 345 harmonic 167.8 2.0080   # SOURCE1 111
bond_coeff 346 harmonic 167.8 2.0080   # SOURCE1 111
bond_coeff 347 harmonic 167.8 2.0080   # SOURCE1 111
bond_coeff 348 harmonic 172.6 1.9970   # SOURCE1 46
bond_coeff 349 harmonic 230.4 2.0720   # SOURCE1 6
bond_coeff 350 harmonic 185.6 2.1610   # SOURCE2 1
bond_coeff 351 harmonic 230.4 2.0720   # SOURCE1 6
bond_coeff 352 harmonic 230.4 2.0720   # SOURCE1 6
bond_coeff 353 harmonic 230.4 2.0720   # SOURCE1 6
bond_coeff 354 harmonic 230.4 2.0720   # SOURCE1 6
bond_coeff 355 harmonic 230.4 2.0720   # SOURCE1 6
bond_coeff 356 harmonic 230.4 2.0720   # SOURCE1 6
bond_coeff 357 harmonic 306.3 1.4200   # SOUECE3 1
bond_coeff 358 harmonic 197.9 1.5460   # SOURCE3 4 0.0388
bond_coeff 359 harmonic 356.2 1.3790   # SOURCE1_SOURCE5 9463 0.0137
bond_coeff 360 harmonic 346.0 1.3870   # CORR_SOURCE5 179 0.0121
bond_coeff 361 harmonic 346.0 1.3870   # CORR_SOURCE5 179 0.0121
bond_coeff 362 harmonic 340.7 1.3910   # CORR_SOURCE5 87 0.0140
bond_coeff 363 harmonic 340.7 1.3910   # CORR_SOURCE5 87 0.0140
bond_coeff 364 harmonic 201.9 1.5400   # SOUECE3 1
bond_coeff 365 harmonic 652.6 1.2180   # SOURCE1_SOURCE5 27083 0.0110
bond_coeff 366 harmonic 383.1 1.3510   # SOURCE1_SOURCE5 3610 0.0055
bond_coeff 367 harmonic 372.9 1.3580   # SOURCE1_SOURCE5 5555 0.0163
bond_coeff 368 harmonic 150.0 1.9000   # SOUECE3 1
bond_coeff 369 harmonic 157.1 1.8830   # SOURCE3 6 0.0129
bond_coeff 370 harmonic 158.4 1.8800   # SOUECE3 1
bond_coeff 371 harmonic 157.6 1.8820   # SOURCE4_SOURCE5 25 0.0081
bond_coeff 372 harmonic 277.6 1.4850   # SOURCE1_SOURCE5 728 0.0059
bond_coeff 373 harmonic 309.6 1.4540   # SOURCE4_SOURCE5 34 0.0159
bond_coeff 374 harmonic 145.7 1.9110   # SOURCE3 3 0.0025
bond_coeff 375 harmonic 145.7 1.9110   # SOURCE3 3
bond_coeff 376 harmonic 349.5 1.3840   # SOURCE4 7 0.0181
bond_coeff 377 harmonic 414.7 1.3390   # SOURCE4_SOURCE5 190 0.0068
bond_coeff 378 harmonic 148.4 1.9040   # SOURCE3 1
bond_coeff 379 harmonic 164.2 1.8670   # SOURCE3_SOURCE5 17 0.0103
bond_coeff 380 harmonic 277.6 1.4850   # SOURCE1_SOURCE5 728 0.0059
bond_coeff 381 harmonic 298.4 1.6720   # SOURCE1_SOURCE5 875 0.0114
bond_coeff 382 harmonic 168.0 1.8700   # SOUECE3 1
bond_coeff 383 harmonic 168.0 1.8700   # SOUECE3 1